
n_res = 6;
rcap = [90, 86, 1048, 951, 1073, 1100];
rtype = [1, 1, 2, 2, 2, 2];
n_tasks = 100;
modes =  [{1, 2, 3, 4, 5, 6}, {7, 8, 9, 10, 11, 12}, {13, 14, 15, 16, 17, 18}, {19, 20, 21, 22, 23, 24}, {25, 26, 27, 28, 29, 30}, {31, 32, 33, 34, 35, 36}, {37, 38, 39, 40, 41, 42}, {43, 44, 45, 46, 47, 48}, {49, 50, 51, 52, 53, 54}, {55, 56, 57, 58, 59, 60}, {61, 62, 63, 64, 65, 66}, {67, 68, 69, 70, 71, 72}, {73, 74, 75, 76, 77, 78}, {79, 80, 81, 82, 83, 84}, {85, 86, 87, 88, 89, 90}, {91, 92, 93, 94, 95, 96}, {97, 98, 99, 100, 101, 102}, {103, 104, 105, 106, 107, 108}, {109, 110, 111, 112, 113, 114}, {115, 116, 117, 118, 119, 120}, {121, 122, 123, 124, 125, 126}, {127, 128, 129, 130, 131, 132}, {133, 134, 135, 136, 137, 138}, {139, 140, 141, 142, 143, 144}, {145, 146, 147, 148, 149, 150}, {151, 152, 153, 154, 155, 156}, {157, 158, 159, 160, 161, 162}, {163, 164, 165, 166, 167, 168}, {169, 170, 171, 172, 173, 174}, {175, 176, 177, 178, 179, 180}, {181, 182, 183, 184, 185, 186}, {187, 188, 189, 190, 191, 192}, {193, 194, 195, 196, 197, 198}, {199, 200, 201, 202, 203, 204}, {205, 206, 207, 208, 209, 210}, {211, 212, 213, 214, 215, 216}, {217, 218, 219, 220, 221, 222}, {223, 224, 225, 226, 227, 228}, {229, 230, 231, 232, 233, 234}, {235, 236, 237, 238, 239, 240}, {241, 242, 243, 244, 245, 246}, {247, 248, 249, 250, 251, 252}, {253, 254, 255, 256, 257, 258}, {259, 260, 261, 262, 263, 264}, {265, 266, 267, 268, 269, 270}, {271, 272, 273, 274, 275, 276}, {277, 278, 279, 280, 281, 282}, {283, 284, 285, 286, 287, 288}, {289, 290, 291, 292, 293, 294}, {295, 296, 297, 298, 299, 300}, {301, 302, 303, 304, 305, 306}, {307, 308, 309, 310, 311, 312}, {313, 314, 315, 316, 317, 318}, {319, 320, 321, 322, 323, 324}, {325, 326, 327, 328, 329, 330}, {331, 332, 333, 334, 335, 336}, {337, 338, 339, 340, 341, 342}, {343, 344, 345, 346, 347, 348}, {349, 350, 351, 352, 353, 354}, {355, 356, 357, 358, 359, 360}, {361, 362, 363, 364, 365, 366}, {367, 368, 369, 370, 371, 372}, {373, 374, 375, 376, 377, 378}, {379, 380, 381, 382, 383, 384}, {385, 386, 387, 388, 389, 390}, {391, 392, 393, 394, 395, 396}, {397, 398, 399, 400, 401, 402}, {403, 404, 405, 406, 407, 408}, {409, 410, 411, 412, 413, 414}, {415, 416, 417, 418, 419, 420}, {421, 422, 423, 424, 425, 426}, {427, 428, 429, 430, 431, 432}, {433, 434, 435, 436, 437, 438}, {439, 440, 441, 442, 443, 444}, {445, 446, 447, 448, 449, 450}, {451, 452, 453, 454, 455, 456}, {457, 458, 459, 460, 461, 462}, {463, 464, 465, 466, 467, 468}, {469, 470, 471, 472, 473, 474}, {475, 476, 477, 478, 479, 480}, {481, 482, 483, 484, 485, 486}, {487, 488, 489, 490, 491, 492}, {493, 494, 495, 496, 497, 498}, {499, 500, 501, 502, 503, 504}, {505, 506, 507, 508, 509, 510}, {511, 512, 513, 514, 515, 516}, {517, 518, 519, 520, 521, 522}, {523, 524, 525, 526, 527, 528}, {529, 530, 531, 532, 533, 534}, {535, 536, 537, 538, 539, 540}, {541, 542, 543, 544, 545, 546}, {547, 548, 549, 550, 551, 552}, {553, 554, 555, 556, 557, 558}, {559, 560, 561, 562, 563, 564}, {565, 566, 567, 568, 569, 570}, {571, 572, 573, 574, 575, 576}, {577, 578, 579, 580, 581, 582}, {583, 584, 585, 586, 587, 588}, {589, 590, 591, 592, 593, 594}, {595, 596, 597, 598, 599, 600}];
succ =  [{100, 98, 75, 72, 70, 65, 63, 62, 59, 54, 50, 48, 43, 41, 38, 15}, {100, 99, 98, 96, 95, 94, 92, 76, 73, 72, 65, 63, 62, 61, 45, 43, 40, 31}, {98, 97, 87, 66, 63, 60, 58, 56, 55, 49, 48, 46, 41, 37}, {96, 95, 94, 90, 76, 73, 70, 67, 66, 63, 59, 51, 49, 48, 43, 37}, {100, 97, 93, 89, 75, 72, 63, 62, 61, 58, 56, 55, 47, 40, 39}, {99, 98, 95, 93, 73, 72, 67, 50, 43, 40, 38, 28}, {99, 98, 94, 92, 90, 85, 75, 74, 73, 70, 69, 64, 63, 62, 58, 57, 45, 43}, {97, 93, 73, 72, 70, 69, 68, 59, 57, 41, 28}, {100, 98, 96, 94, 89, 88, 83, 76, 75, 71, 66, 63, 59, 54, 52, 49, 40}, {97, 96, 94, 90, 76, 75, 72, 70, 69, 65, 62, 48, 47, 32}, {99, 96, 94, 93, 91, 90, 82, 76, 73, 62, 57, 54, 44, 43}, {99, 98, 97, 96, 95, 93, 92, 88, 86, 81, 57, 53, 42, 40}, {97, 95, 94, 93, 92, 91, 90, 87, 85, 74, 73, 72, 71, 69, 67, 65, 59, 58, 57, 47}, {99, 98, 97, 96, 94, 89, 88, 85, 84, 75, 74, 70, 69, 64, 63, 57, 50, 47}, {99, 95, 94, 93, 92, 90, 89, 87, 76, 74, 73, 71, 66, 60, 57, 52, 47}, {95, 93, 91, 90, 88, 82, 68, 64, 58, 56, 54, 43}, {99, 94, 90, 88, 83, 82, 74, 72, 71, 70, 64, 63, 58, 57, 55, 54}, {98, 95, 94, 92, 91, 90, 72, 70, 69, 68, 65, 61, 60, 47, 45}, {99, 98, 97, 96, 94, 93, 88, 87, 83, 76, 71, 63, 59, 41}, {95, 93, 92, 90, 88, 84, 73, 72, 70, 65, 63, 49, 43}, {99, 98, 94, 90, 89, 87, 85, 73, 71, 69, 64, 63, 60, 55, 47}, {98, 93, 92, 91, 87, 75, 72, 71, 69, 50, 47, 41}, {96, 94, 91, 85, 73, 71, 69, 55, 32}, {98, 95, 93, 91, 86, 83, 81, 65, 64, 60, 40}, {98, 96, 94, 93, 92, 91, 90, 89, 83, 80, 78, 72, 70, 66, 64, 60}, {96, 92, 90, 89, 88, 87, 85, 84, 83, 82, 81, 72, 64, 63, 62, 57}, {97, 94, 92, 88, 87, 85, 69, 65, 63, 62, 57, 47}, {94, 92, 90, 89, 87, 86, 85, 83, 82, 80, 78, 63, 60, 58}, {95, 93, 90, 89, 88, 75, 72, 68, 49, 47}, {99, 95, 90, 89, 84, 83, 80, 73, 70, 69, 68, 66}, {91, 90, 89, 88, 87, 86, 83, 69, 68, 59, 57}, {100, 98, 95, 93, 88, 87, 86, 84, 83, 82, 57}, {97, 96, 91, 84, 83, 82, 81, 80, 79, 70, 62}, {99, 93, 92, 87, 83, 80, 78, 72, 69, 68, 63}, {92, 88, 87, 85, 82, 81, 73, 68, 63, 57}, {98, 97, 88, 85, 84, 81, 80, 79, 70, 69, 68}, {91, 88, 84, 83, 81, 72, 68, 57}, {89, 88, 85, 84, 68, 47}, {95, 94, 90, 88, 83, 82, 79, 76, 71, 68}, {90, 85, 84, 80, 74, 70, 69, 68}, {95, 90, 89, 86, 85, 84, 82, 74, 64}, {91, 89, 87, 85, 84, 82, 80, 62}, {97, 89, 71, 47}, {95, 83, 78, 68, 60}, {93, 88, 84, 82, 80, 79, 78, 77}, {93, 80, 79, 69, 65}, {86, 83, 81, 80, 79, 78, 77}, {92, 89, 88, 85, 84, 81, 77}, {86, 85, 81, 78, 77, 69}, {90, 86, 83, 80, 78, 68}, {93, 92, 83, 78, 77, 75}, {80, 79, 78, 69, 68}, {90, 85, 84, 83, 64}, {92, 87, 85, 81, 79, 78}, {92, 81, 80, 68}, {94, 80, 77, 73}, {80, 79, 78, 77}, {96, 84, 81, 77}, {81, 80, 78, 77}, {88, 84, 79}, {85, 84, 78}, {78, 68}, {91, 77}, {79, 77}, {89, 78}, {85, 81}, {79, 78}, {77}, {82}, {87}, {81}, {86}, {78}, {79}, {79}, {81}, {}, {}, {}, {}, {}, {}, {}, {}, {}, {}, {}, {}, {}, {}, {}, {}, {}, {}, {}, {}, {}, {}, {}, {}];
n_opt = 600;
dur = [1, 6, 7, 8, 13, 16, 5, 10, 11, 12, 16, 17, 2, 7, 8, 9, 16, 19, 3, 7, 11, 18, 19, 20, 2, 4, 10, 13, 14, 19, 3, 6, 7, 16, 17, 20, 1, 7, 16, 17, 18, 20, 9, 13, 17, 18, 19, 20, 1, 12, 13, 14, 18, 20, 2, 9, 12, 14, 18, 19, 1, 2, 7, 8, 11, 20, 3, 8, 9, 12, 13, 20, 2, 3, 5, 7, 8, 10, 5, 8, 11, 13, 14, 19, 6, 7, 8, 11, 12, 18, 9, 10, 11, 12, 13, 19, 2, 6, 10, 12, 13, 18, 2, 7, 8, 9, 17, 18, 1, 3, 4, 7, 11, 17, 1, 3, 9, 11, 12, 17, 1, 6, 7, 8, 19, 20, 3, 4, 15, 18, 19, 20, 3, 6, 7, 9, 16, 18, 2, 12, 14, 16, 17, 20, 4, 9, 10, 17, 18, 19, 1, 4, 11, 13, 14, 17, 2, 3, 4, 5, 14, 17, 8, 9, 12, 16, 17, 20, 1, 5, 6, 8, 19, 20, 1, 6, 9, 12, 14, 17, 7, 8, 12, 13, 16, 18, 1, 9, 10, 11, 12, 17, 3, 5, 8, 9, 18, 20, 3, 4, 7, 8, 14, 20, 7, 8, 9, 11, 12, 16, 2, 10, 13, 14, 18, 19, 11, 12, 14, 16, 17, 19, 2, 6, 8, 12, 14, 20, 6, 7, 8, 9, 17, 19, 1, 4, 7, 8, 12, 20, 3, 10, 14, 15, 17, 18, 2, 4, 9, 11, 17, 18, 5, 6, 8, 9, 10, 18, 1, 2, 3, 4, 7, 18, 8, 12, 13, 15, 17, 18, 1, 4, 6, 9, 14, 18, 1, 3, 9, 11, 14, 16, 3, 4, 5, 6, 9, 10, 1, 2, 5, 14, 16, 17, 3, 4, 6, 8, 9, 11, 1, 2, 4, 9, 15, 19, 3, 5, 12, 14, 15, 16, 1, 2, 8, 14, 16, 18, 1, 10, 11, 13, 17, 20, 1, 4, 8, 17, 18, 19, 4, 7, 8, 12, 15, 16, 3, 4, 6, 9, 14, 20, 2, 6, 8, 17, 18, 20, 6, 7, 8, 10, 13, 18, 3, 6, 7, 10, 11, 14, 10, 13, 14, 15, 16, 20, 2, 5, 6, 13, 19, 20, 1, 3, 5, 15, 17, 18, 7, 8, 10, 13, 19, 20, 2, 4, 7, 9, 11, 13, 10, 11, 12, 15, 17, 19, 11, 12, 16, 17, 18, 20, 6, 11, 14, 15, 16, 20, 5, 7, 8, 12, 14, 17, 4, 5, 6, 9, 13, 19, 1, 2, 3, 9, 10, 20, 7, 12, 13, 14, 17, 19, 7, 12, 16, 17, 18, 20, 1, 2, 5, 7, 12, 15, 4, 5, 6, 7, 8, 11, 3, 4, 5, 9, 12, 19, 1, 4, 7, 14, 18, 19, 10, 11, 12, 13, 14, 17, 4, 5, 6, 8, 14, 15, 6, 8, 10, 17, 18, 20, 5, 9, 10, 11, 12, 20, 2, 4, 5, 9, 12, 19, 2, 6, 12, 14, 16, 19, 2, 3, 4, 9, 16, 18, 3, 5, 7, 17, 18, 20, 9, 12, 14, 15, 16, 18, 4, 12, 14, 15, 17, 20, 3, 4, 12, 13, 14, 15, 4, 6, 9, 11, 12, 20, 1, 2, 4, 11, 12, 13, 8, 9, 10, 12, 14, 18, 3, 4, 5, 9, 10, 17, 1, 3, 9, 17, 18, 19, 8, 9, 11, 14, 15, 17, 6, 7, 8, 10, 13, 14, 1, 2, 6, 7, 10, 19, 6, 9, 10, 13, 17, 18, 4, 5, 11, 12, 14, 16, 1, 2, 3, 8, 18, 20, 4, 5, 6, 9, 10, 14];
rreq = [|2, 1, 1, 1, 1, 1, 4, 4, 4, 3, 3, 3, 4, 3, 3, 2, 2, 2, 2, 2, 2, 2, 2, 2, 4, 4, 4, 4, 4, 4, 3, 2, 2, 2, 2, 2, 2, 2, 2, 2, 2, 2, 4, 3, 3, 2, 2, 1, 5, 5, 5, 5, 5, 5, 1, 1, 1, 1, 1, 1, 4, 4, 4, 4, 4, 4, 5, 4, 3, 3, 3, 2, 5, 4, 3, 2, 2, 1, 5, 4, 4, 4, 4, 4, 4, 4, 3, 3, 3, 2, 4, 4, 4, 4, 4, 4, 5, 5, 5, 5, 5, 5, 5, 4, 4, 3, 2, 2, 4, 4, 4, 3, 3, 3, 3, 3, 2, 2, 2, 1, 2, 2, 2, 2, 2, 2, 3, 3, 3, 2, 2, 2, 5, 4, 4, 3, 3, 2, 4, 4, 3, 3, 2, 2, 5, 4, 4, 4, 4, 4, 3, 3, 3, 3, 2, 2, 3, 2, 2, 2, 2, 2, 4, 4, 4, 4, 3, 3, 5, 4, 4, 4, 3, 3, 3, 3, 3, 3, 3, 3, 2, 2, 2, 2, 2, 2, 3, 3, 3, 3, 2, 2, 4, 3, 3, 3, 2, 2, 3, 3, 3, 3, 3, 3, 4, 4, 4, 4, 4, 4, 4, 4, 4, 3, 3, 2, 5, 4, 3, 2, 2, 1, 4, 3, 3, 3, 1, 1, 3, 3, 3, 2, 1, 1, 3, 3, 3, 3, 3, 3, 5, 4, 4, 4, 4, 4, 3, 2, 2, 2, 1, 1, 4, 3, 3, 3, 3, 3, 4, 3, 3, 2, 2, 1, 1, 1, 1, 1, 1, 1, 1, 1, 1, 1, 1, 1, 3, 2, 2, 1, 1, 1, 2, 2, 2, 2, 2, 2, 4, 4, 4, 4, 4, 4, 5, 4, 4, 4, 3, 3, 2, 2, 2, 2, 2, 2, 5, 4, 3, 3, 3, 2, 2, 2, 2, 2, 2, 2, 4, 3, 3, 2, 1, 1, 2, 2, 2, 2, 1, 1, 1, 1, 1, 1, 1, 1, 3, 3, 2, 2, 1, 1, 5, 4, 3, 3, 2, 1, 4, 3, 3, 3, 2, 1, 4, 3, 3, 2, 2, 2, 4, 4, 4, 4, 4, 4, 3, 3, 3, 3, 3, 3, 4, 3, 3, 3, 2, 2, 4, 3, 3, 3, 3, 3, 2, 2, 2, 2, 1, 1, 4, 4, 4, 3, 3, 3, 4, 3, 2, 2, 2, 1, 4, 3, 3, 3, 3, 3, 3, 3, 3, 3, 2, 2, 4, 3, 3, 3, 1, 1, 5, 5, 5, 5, 5, 5, 5, 4, 4, 4, 4, 4, 4, 4, 4, 4, 4, 4, 2, 2, 2, 2, 2, 2, 3, 3, 3, 3, 3, 3, 2, 2, 2, 2, 2, 2, 5, 4, 4, 4, 4, 4, 4, 4, 4, 4, 4, 4, 2, 1, 1, 1, 1, 1, 4, 3, 3, 3, 3, 3, 4, 3, 3, 2, 1, 1, 4, 4, 4, 4, 4, 4, 5, 4, 4, 3, 3, 3, 5, 4, 4, 4, 3, 3, 2, 2, 2, 1, 1, 1, 4, 3, 3, 2, 1, 1, 4, 4, 4, 4, 4, 4, 2, 2, 2, 1, 1, 1, 5, 5, 5, 5, 5, 5, 2, 2, 2, 2, 2, 2, 4, 4, 4, 4, 4, 4, 5, 3, 3, 3, 2, 1, 4, 4, 4, 4, 4, 4, 5, 4, 4, 3, 3, 2, 4, 3, 3, 3, 2, 2, 4, 4, 4, 3, 2, 2, 2, 2, 2, 2, 2, 2, 3, 3, 3, 3, 2, 2, 4, 3, 3, 3, 3, 3, 5, 4, 3, 3, 3, 2
 |4, 3, 3, 3, 3, 3, 4, 3, 3, 3, 2, 2, 2, 2, 2, 2, 2, 2, 2, 1, 1, 1, 1, 1, 3, 3, 3, 2, 2, 1, 3, 2, 2, 2, 2, 2, 5, 5, 5, 5, 5, 5, 3, 3, 3, 3, 3, 3, 3, 2, 2, 1, 1, 1, 4, 4, 4, 3, 3, 3, 4, 4, 4, 4, 3, 3, 4, 4, 4, 4, 4, 4, 4, 3, 3, 3, 3, 3, 4, 4, 3, 3, 2, 1, 2, 1, 1, 1, 1, 1, 4, 4, 4, 4, 3, 3, 5, 3, 3, 3, 1, 1, 2, 2, 2, 2, 2, 2, 1, 1, 1, 1, 1, 1, 1, 1, 1, 1, 1, 1, 5, 4, 4, 4, 4, 4, 2, 2, 2, 2, 2, 2, 5, 4, 4, 4, 4, 4, 3, 2, 2, 1, 1, 1, 5, 4, 4, 4, 3, 3, 5, 4, 3, 2, 1, 1, 3, 3, 3, 3, 3, 3, 5, 4, 4, 4, 3, 3, 3, 2, 2, 2, 2, 2, 4, 3, 3, 3, 1, 1, 4, 4, 4, 4, 4, 4, 4, 4, 3, 3, 2, 2, 3, 3, 3, 3, 3, 3, 3, 2, 2, 2, 2, 2, 5, 4, 4, 4, 4, 4, 5, 4, 4, 3, 3, 3, 5, 4, 4, 4, 4, 4, 3, 3, 3, 3, 2, 2, 4, 3, 3, 2, 2, 2, 4, 3, 3, 2, 1, 1, 4, 3, 2, 2, 2, 1, 5, 4, 3, 3, 3, 2, 5, 4, 4, 4, 4, 4, 4, 3, 3, 3, 3, 3, 5, 5, 5, 5, 5, 5, 2, 2, 2, 2, 2, 2, 5, 4, 3, 2, 2, 1, 3, 2, 2, 1, 1, 1, 4, 4, 3, 2, 1, 1, 4, 4, 4, 4, 3, 3, 3, 3, 3, 3, 3, 3, 2, 2, 2, 2, 2, 2, 5, 4, 4, 4, 3, 3, 4, 4, 4, 4, 4, 4, 4, 4, 4, 4, 4, 4, 4, 4, 3, 3, 1, 1, 5, 4, 4, 4, 4, 4, 5, 4, 4, 4, 3, 3, 4, 3, 3, 3, 3, 3, 5, 5, 5, 5, 5, 5, 5, 4, 4, 3, 3, 2, 4, 4, 4, 4, 4, 4, 4, 4, 4, 4, 4, 4, 3, 3, 3, 2, 2, 2, 5, 4, 3, 3, 3, 2, 3, 3, 3, 2, 2, 2, 5, 4, 4, 3, 2, 2, 3, 2, 2, 2, 1, 1, 2, 1, 1, 1, 1, 1, 3, 3, 3, 3, 3, 3, 4, 4, 3, 3, 2, 2, 3, 3, 2, 2, 2, 1, 2, 1, 1, 1, 1, 1, 4, 4, 4, 4, 4, 4, 3, 3, 3, 3, 3, 3, 4, 4, 4, 4, 3, 3, 3, 3, 3, 3, 3, 3, 3, 3, 3, 2, 1, 1, 5, 4, 3, 3, 2, 2, 4, 3, 3, 2, 2, 2, 4, 3, 3, 2, 1, 1, 3, 2, 2, 2, 2, 2, 2, 1, 1, 1, 1, 1, 1, 1, 1, 1, 1, 1, 3, 3, 3, 3, 3, 3, 1, 1, 1, 1, 1, 1, 3, 2, 2, 2, 1, 1, 1, 1, 1, 1, 1, 1, 3, 2, 2, 2, 2, 2, 4, 4, 4, 3, 3, 3, 2, 2, 2, 1, 1, 1, 4, 3, 3, 3, 3, 3, 1, 1, 1, 1, 1, 1, 4, 3, 3, 2, 2, 2, 3, 3, 2, 2, 2, 1, 3, 2, 2, 2, 2, 2, 1, 1, 1, 1, 1, 1, 5, 4, 4, 3, 3, 3, 4, 3, 3, 2, 2, 1, 5, 4, 4, 4, 4, 4
 |7, 6, 6, 6, 6, 6, 13, 13, 13, 13, 13, 13, 20, 20, 20, 20, 20, 20, 17, 16, 14, 14, 11, 10, 9, 8, 7, 4, 2, 2, 13, 11, 9, 8, 8, 6, 11, 10, 9, 8, 5, 4, 7, 6, 6, 5, 3, 3, 17, 14, 12, 7, 7, 5, 13, 12, 10, 8, 8, 7, 13, 11, 9, 8, 7, 5, 18, 13, 10, 10, 6, 2, 18, 14, 13, 11, 8, 6, 19, 15, 12, 11, 7, 5, 16, 15, 13, 11, 11, 9, 4, 4, 4, 4, 4, 4, 11, 9, 7, 6, 4, 2, 8, 8, 8, 8, 8, 8, 8, 7, 5, 4, 3, 3, 16, 16, 13, 12, 9, 6, 15, 14, 13, 11, 8, 7, 18, 18, 18, 18, 18, 18, 10, 9, 8, 7, 7, 6, 3, 3, 3, 3, 3, 3, 7, 5, 4, 4, 3, 1, 14, 11, 9, 8, 5, 4, 17, 14, 12, 8, 7, 4, 7, 7, 5, 5, 4, 3, 11, 9, 7, 6, 3, 2, 14, 11, 9, 8, 8, 6, 17, 12, 9, 9, 4, 4, 12, 11, 11, 11, 11, 11, 8, 7, 7, 6, 6, 5, 14, 14, 12, 12, 11, 10, 12, 10, 10, 9, 8, 8, 12, 10, 9, 7, 6, 6, 10, 9, 7, 7, 6, 4, 17, 14, 14, 10, 10, 8, 12, 12, 12, 12, 12, 12, 19, 16, 13, 11, 11, 8, 4, 3, 3, 3, 3, 3, 12, 10, 8, 6, 6, 4, 19, 18, 18, 17, 16, 16, 18, 18, 18, 18, 18, 18, 17, 16, 11, 8, 7, 3, 11, 9, 8, 6, 4, 1, 9, 9, 9, 9, 9, 9, 11, 9, 8, 7, 4, 4, 18, 17, 17, 17, 17, 17, 17, 16, 14, 12, 9, 9, 13, 10, 9, 9, 8, 7, 19, 18, 18, 17, 16, 15, 17, 16, 13, 13, 12, 10, 18, 15, 14, 11, 9, 8, 12, 11, 10, 9, 8, 7, 11, 10, 10, 9, 8, 8, 11, 9, 9, 7, 6, 6, 14, 13, 13, 12, 11, 10, 11, 11, 7, 7, 5, 2, 5, 4, 4, 3, 3, 2, 15, 12, 11, 10, 9, 7, 18, 17, 17, 17, 17, 17, 8, 8, 8, 7, 7, 6, 17, 17, 17, 16, 16, 16, 13, 13, 13, 13, 12, 12, 12, 12, 12, 11, 11, 10, 15, 13, 12, 11, 10, 9, 20, 18, 18, 18, 17, 16, 11, 10, 10, 8, 8, 7, 11, 10, 9, 8, 8, 7, 13, 11, 10, 9, 8, 8, 18, 15, 12, 12, 9, 8, 2, 2, 2, 2, 2, 2, 16, 16, 16, 16, 15, 15, 16, 15, 15, 15, 14, 14, 2, 2, 2, 2, 2, 2, 16, 13, 9, 8, 4, 1, 17, 17, 16, 16, 16, 15, 8, 8, 7, 6, 5, 3, 15, 14, 13, 11, 8, 6, 14, 14, 14, 14, 13, 13, 15, 10, 9, 7, 4, 3, 15, 14, 14, 12, 11, 11, 18, 17, 15, 15, 13, 13, 17, 17, 16, 15, 14, 14, 10, 8, 8, 8, 7, 6, 20, 16, 15, 11, 11, 8, 18, 14, 11, 9, 7, 4, 13, 11, 11, 10, 10, 9, 12, 11, 11, 10, 10, 9, 8, 7, 6, 6, 4, 4, 9, 8, 7, 7, 5, 5, 11, 10, 10, 9, 8, 8, 18, 17, 16, 14, 13, 13, 16, 12, 11, 8, 7, 5, 16, 15, 15, 14, 14, 13, 19, 16, 16, 15, 14, 12, 14, 13, 13, 11, 10, 10, 12, 12, 12, 12, 12, 12, 10, 9, 8, 8, 6, 6
 |7, 7, 7, 7, 7, 7, 12, 10, 8, 7, 5, 3, 8, 7, 7, 5, 4, 1, 13, 11, 11, 10, 8, 8, 2, 2, 2, 2, 1, 1, 11, 10, 10, 10, 10, 10, 13, 12, 12, 12, 11, 11, 18, 17, 16, 15, 15, 14, 8, 7, 6, 6, 5, 5, 13, 13, 12, 12, 11, 11, 14, 12, 10, 8, 7, 5, 17, 16, 16, 14, 13, 12, 19, 17, 15, 10, 9, 6, 5, 4, 4, 4, 3, 3, 15, 14, 11, 11, 7, 7, 17, 17, 16, 16, 16, 15, 18, 16, 16, 16, 14, 14, 9, 6, 5, 3, 3, 2, 8, 7, 7, 6, 5, 5, 13, 12, 12, 11, 11, 11, 13, 12, 10, 7, 6, 4, 12, 12, 11, 10, 9, 9, 7, 5, 5, 5, 3, 3, 18, 16, 14, 12, 10, 10, 17, 15, 14, 12, 9, 9, 5, 5, 5, 4, 4, 3, 14, 13, 13, 13, 12, 12, 12, 11, 11, 11, 11, 11, 11, 10, 10, 10, 10, 10, 19, 16, 16, 13, 10, 10, 8, 8, 8, 8, 8, 8, 2, 1, 1, 1, 1, 1, 5, 3, 3, 3, 1, 1, 9, 9, 9, 8, 8, 7, 10, 8, 7, 6, 6, 5, 17, 15, 11, 9, 9, 6, 17, 16, 16, 15, 13, 13, 17, 17, 17, 17, 17, 17, 17, 17, 16, 15, 13, 12, 10, 8, 8, 8, 6, 6, 18, 17, 15, 14, 13, 12, 8, 7, 6, 5, 5, 4, 6, 6, 5, 3, 2, 2, 18, 14, 14, 10, 9, 6, 10, 9, 9, 8, 8, 8, 20, 18, 18, 17, 16, 15, 9, 7, 6, 4, 4, 1, 7, 6, 5, 5, 4, 3, 13, 10, 7, 6, 3, 3, 19, 19, 19, 19, 19, 19, 18, 17, 17, 16, 14, 14, 5, 3, 3, 3, 2, 1, 14, 13, 13, 13, 13, 13, 18, 13, 12, 7, 3, 2, 15, 12, 12, 10, 9, 6, 14, 13, 12, 11, 9, 9, 13, 10, 9, 9, 8, 7, 7, 7, 7, 7, 7, 7, 17, 16, 12, 12, 9, 6, 8, 8, 7, 7, 7, 6, 7, 5, 5, 4, 2, 2, 5, 5, 5, 5, 5, 5, 7, 6, 5, 4, 3, 2, 11, 10, 6, 4, 2, 1, 14, 14, 13, 11, 10, 10, 11, 11, 11, 11, 11, 11, 6, 5, 4, 4, 3, 2, 13, 12, 11, 11, 10, 10, 10, 8, 8, 6, 6, 5, 10, 8, 8, 6, 3, 2, 10, 9, 8, 8, 7, 7, 6, 4, 4, 3, 2, 2, 9, 8, 8, 8, 8, 8, 17, 15, 15, 14, 11, 11, 7, 7, 7, 7, 7, 7, 19, 17, 14, 12, 12, 9, 15, 13, 12, 10, 8, 7, 12, 11, 10, 9, 7, 7, 9, 7, 6, 6, 5, 4, 9, 8, 8, 8, 8, 8, 14, 11, 9, 8, 7, 5, 3, 2, 2, 2, 1, 1, 9, 8, 8, 8, 7, 6, 20, 18, 18, 17, 15, 15, 13, 13, 9, 9, 6, 5, 1, 1, 1, 1, 1, 1, 11, 11, 8, 5, 4, 2, 17, 12, 9, 6, 6, 3, 11, 10, 10, 10, 10, 10, 6, 5, 4, 4, 4, 3, 11, 10, 9, 7, 7, 6, 13, 10, 9, 7, 5, 5, 13, 13, 13, 13, 13, 13, 16, 15, 14, 13, 12, 12, 14, 14, 14, 14, 14, 14, 19, 16, 14, 9, 5, 5, 20, 19, 19, 19, 18, 18, 14, 13, 12, 10, 6, 4, 10, 10, 10, 10, 10, 10, 8, 7, 7, 6, 6, 5
 |8, 7, 6, 5, 4, 4, 15, 12, 12, 11, 9, 6, 6, 6, 5, 5, 4, 4, 17, 13, 11, 8, 4, 2, 4, 3, 3, 3, 3, 3, 20, 18, 15, 14, 14, 12, 20, 19, 18, 17, 17, 16, 13, 13, 11, 9, 7, 3, 18, 18, 17, 17, 17, 16, 18, 17, 17, 17, 17, 17, 13, 13, 10, 10, 9, 6, 1, 1, 1, 1, 1, 1, 13, 13, 13, 13, 12, 12, 18, 17, 15, 14, 13, 12, 18, 18, 18, 17, 17, 16, 16, 13, 12, 11, 10, 9, 7, 6, 5, 3, 2, 1, 11, 10, 10, 9, 9, 9, 15, 15, 14, 14, 13, 13, 14, 14, 14, 13, 13, 12, 10, 9, 7, 5, 3, 2, 13, 12, 12, 12, 11, 11, 12, 11, 9, 8, 7, 4, 14, 14, 14, 14, 14, 14, 13, 13, 13, 12, 12, 12, 18, 13, 10, 7, 3, 3, 10, 9, 8, 8, 7, 7, 9, 9, 9, 8, 8, 7, 15, 15, 15, 14, 14, 14, 14, 10, 10, 7, 5, 5, 14, 13, 10, 9, 6, 3, 17, 16, 16, 16, 16, 16, 11, 11, 10, 10, 9, 8, 18, 17, 17, 17, 17, 17, 18, 18, 17, 16, 14, 13, 10, 8, 6, 5, 4, 2, 6, 5, 4, 4, 2, 2, 3, 3, 3, 3, 3, 3, 14, 11, 11, 9, 4, 4, 20, 18, 17, 16, 16, 15, 18, 18, 16, 16, 15, 13, 18, 17, 17, 16, 16, 16, 16, 15, 15, 14, 14, 13, 9, 9, 7, 5, 3, 3, 16, 15, 14, 12, 11, 10, 17, 17, 16, 15, 15, 14, 10, 8, 8, 7, 5, 4, 9, 9, 9, 8, 8, 7, 13, 13, 11, 10, 10, 8, 15, 14, 14, 14, 12, 12, 8, 8, 6, 5, 4, 3, 5, 4, 3, 3, 3, 2, 13, 11, 10, 6, 4, 2, 12, 11, 11, 11, 11, 11, 17, 17, 17, 17, 17, 17, 18, 18, 18, 18, 18, 18, 17, 16, 15, 14, 13, 12, 15, 13, 13, 13, 12, 11, 11, 8, 8, 7, 4, 4, 13, 12, 12, 11, 11, 10, 19, 16, 15, 14, 12, 10, 8, 6, 6, 5, 3, 3, 18, 16, 15, 15, 13, 12, 20, 19, 19, 19, 19, 19, 10, 9, 8, 7, 5, 4, 15, 14, 13, 10, 9, 8, 10, 9, 8, 7, 6, 6, 13, 11, 11, 8, 8, 6, 15, 15, 14, 11, 11, 10, 8, 6, 5, 3, 3, 1, 17, 17, 13, 11, 11, 7, 15, 14, 11, 8, 8, 5, 13, 11, 10, 8, 4, 3, 11, 9, 9, 8, 6, 6, 13, 10, 8, 7, 6, 3, 20, 17, 15, 11, 10, 8, 12, 9, 8, 7, 5, 3, 16, 16, 15, 13, 13, 12, 9, 9, 9, 9, 9, 9, 3, 3, 3, 3, 3, 3, 12, 11, 9, 8, 6, 6, 20, 18, 16, 14, 13, 13, 4, 3, 3, 2, 2, 2, 19, 16, 12, 11, 6, 6, 20, 14, 12, 9, 7, 4, 11, 10, 10, 9, 7, 7, 5, 4, 4, 4, 3, 3, 19, 19, 19, 19, 19, 19, 14, 13, 12, 12, 11, 10, 16, 11, 11, 7, 6, 2, 7, 7, 7, 7, 7, 7, 19, 19, 19, 18, 17, 17, 16, 14, 13, 11, 10, 8, 12, 11, 10, 10, 8, 8, 7, 7, 7, 7, 7, 7, 14, 13, 11, 8, 7, 4, 12, 11, 8, 8, 5, 4, 17, 17, 17, 17, 17, 17, 16, 16, 13, 8, 5, 3, 10, 8, 8, 8, 7, 6
 |16, 15, 15, 15, 15, 14, 14, 13, 11, 7, 5, 3, 14, 12, 12, 8, 8, 5, 15, 14, 14, 14, 13, 13, 13, 11, 10, 7, 6, 4, 17, 15, 13, 13, 11, 10, 11, 9, 8, 7, 6, 6, 16, 15, 15, 14, 14, 13, 7, 5, 5, 4, 3, 3, 18, 15, 12, 8, 8, 5, 18, 17, 17, 16, 16, 15, 15, 14, 11, 9, 9, 6, 15, 14, 14, 14, 14, 14, 15, 14, 12, 12, 10, 10, 12, 10, 10, 7, 3, 2, 17, 15, 14, 13, 12, 10, 18, 17, 15, 11, 10, 8, 17, 17, 14, 11, 6, 5, 12, 12, 12, 12, 12, 11, 18, 16, 15, 14, 12, 11, 18, 18, 18, 18, 17, 17, 14, 13, 13, 12, 12, 11, 7, 6, 5, 4, 3, 3, 10, 10, 10, 9, 9, 8, 18, 12, 10, 8, 6, 2, 15, 13, 9, 6, 3, 3, 10, 9, 7, 6, 6, 5, 18, 17, 16, 16, 15, 15, 19, 19, 19, 19, 19, 19, 17, 16, 15, 13, 13, 12, 18, 16, 13, 9, 7, 6, 14, 12, 11, 9, 7, 6, 7, 6, 4, 4, 2, 2, 11, 9, 9, 8, 7, 6, 18, 13, 11, 7, 7, 2, 16, 15, 13, 11, 11, 10, 13, 12, 12, 11, 10, 8, 19, 19, 18, 18, 18, 17, 13, 10, 8, 6, 6, 3, 13, 12, 12, 10, 10, 9, 15, 15, 15, 15, 15, 15, 19, 19, 18, 17, 17, 16, 12, 11, 9, 6, 6, 3, 12, 11, 11, 10, 7, 7, 9, 8, 8, 7, 7, 6, 17, 17, 15, 15, 14, 13, 7, 6, 5, 5, 3, 3, 11, 11, 11, 11, 11, 11, 12, 10, 10, 8, 6, 5, 16, 14, 13, 12, 11, 10, 19, 19, 19, 19, 19, 19, 8, 8, 6, 6, 4, 4, 15, 12, 11, 10, 8, 5, 9, 8, 8, 8, 8, 8, 16, 16, 11, 10, 9, 4, 11, 10, 10, 10, 11, 10, 19, 18, 16, 16, 13, 12, 15, 14, 10, 9, 6, 5, 20, 16, 16, 12, 11, 8, 13, 13, 12, 12, 11, 11, 17, 16, 14, 12, 9, 8, 16, 14, 13, 12, 11, 10, 16, 14, 14, 12, 12, 10, 5, 5, 4, 4, 2, 2, 8, 8, 7, 5, 2, 2, 11, 11, 10, 7, 7, 5, 18, 16, 12, 8, 7, 3, 15, 13, 12, 11, 10, 10, 11, 11, 10, 8, 6, 6, 16, 16, 16, 15, 15, 15, 3, 3, 3, 2, 1, 1, 13, 11, 9, 7, 5, 3, 17, 15, 14, 13, 13, 12, 10, 10, 9, 10, 10, 9, 19, 16, 15, 13, 10, 8, 14, 12, 11, 8, 8, 6, 18, 18, 17, 17, 16, 16, 18, 17, 15, 12, 9, 8, 13, 10, 9, 7, 4, 4, 12, 12, 12, 11, 11, 10, 17, 15, 15, 15, 13, 13, 16, 14, 12, 12, 10, 9, 15, 13, 12, 11, 11, 10, 14, 12, 10, 9, 7, 4, 17, 16, 13, 11, 8, 5, 18, 14, 13, 10, 8, 7, 3, 3, 3, 3, 3, 3, 5, 5, 5, 5, 5, 5, 14, 10, 8, 6, 4, 2, 13, 12, 12, 12, 12, 12, 11, 10, 9, 8, 6, 5, 15, 13, 12, 11, 7, 6, 16, 15, 14, 14, 14, 13, 7, 6, 6, 6, 6, 6, 18, 16, 12, 9, 7, 5, 17, 15, 14, 14, 11, 10, 13, 12, 10, 8, 6, 3, 13, 13, 12, 12, 11, 10, 19, 16, 16, 14, 13, 13, 6, 5, 4, 4, 2, 2|];